(declare-fun temp410_2 () (_ BitVec 64))
(declare-fun temp410_1 () (_ BitVec 64))
(declare-fun temp410_3 () (_ BitVec 64))
(declare-fun var288560 () (_ BitVec 64))
(declare-fun temp410_5 () (_ BitVec 64))
(declare-fun temp410_4 () (_ BitVec 64))
(declare-fun temp410_6 () (_ BitVec 64))
(declare-fun var852463 () (_ BitVec 64))
(declare-fun temp410_7 () (_ BitVec 64))
(declare-fun var1516363 () (_ BitVec 64))
(declare-fun var1585777 () (_ BitVec 64))
(declare-fun temp410_8 () (_ BitVec 64))
(declare-fun var1979015 () (_ BitVec 64))
(declare-fun var1979024 () (_ BitVec 64))
(declare-fun var2101624 () (_ BitVec 64))
(declare-fun var2699889 () (_ BitVec 64))
(declare-fun var2962033 () (_ BitVec 64))
(declare-fun temp410_9 () (_ BitVec 64))
(declare-fun var3093127 () (_ BitVec 64))
(declare-fun var3093136 () (_ BitVec 64))
(declare-fun var3215736 () (_ BitVec 64))
(declare-fun var4469361 () (_ BitVec 64))
(declare-fun temp410_10 () (_ BitVec 64))
(declare-fun var4534897 () (_ BitVec 64))
(declare-fun temp410_11 () (_ BitVec 64))
(declare-fun var4600433 () (_ BitVec 64))
(declare-fun temp410_12 () (_ BitVec 64))
(declare-fun var4665969 () (_ BitVec 64))
(declare-fun var4797041 () (_ BitVec 64))
(declare-fun temp410_13 () (_ BitVec 64))
(declare-fun var4862577 () (_ BitVec 64))
(declare-fun temp410_14 () (_ BitVec 64))
(declare-fun var4928113 () (_ BitVec 64))
(assert (= temp410_2 #x00000000000003cb))
(assert (= temp410_1 temp410_2))
(assert (= temp410_3 #x0000000000000000))
(assert (= var288560 temp410_3))
(assert (= temp410_5 #x0000000000000002))
(assert (= temp410_4 temp410_5))
(assert (= temp410_6 #x0000000000000000))
(assert (= var852463 temp410_6))
(assert (= temp410_7 #x0000000000000000))
(assert (= var852463 temp410_7))
(assert (= var1516363 var852463))
(assert (= var1585777 var852463))
(assert (= temp410_8 #x0000000000000001))
(assert (= var1979015 temp410_8))
(assert (= var1979024 var1979015))
(assert (= var2101624 var1979024))
(assert (= var2699889 var852463))
(assert (= var2962033 var852463))
(assert (= temp410_9 #x0000000000000001))
(assert (= var3093127 temp410_9))
(assert (= var3093136 var3093127))
(assert (= var3215736 var3093136))
(assert (= var4469361 var852463))
(assert (= temp410_10 #x0000000000000001))
(assert (= var4534897 temp410_10))
(assert (= temp410_11 #x0000000000000002))
(assert (= var4600433 temp410_11))
(assert (= temp410_12 #x0000000000000002))
(assert (= var4665969 temp410_12))
(assert (= var4797041 var852463))
(assert (= temp410_13 #x0000000000000001))
(assert (= var4862577 temp410_13))
(assert (= temp410_14 #x0000000000000002))
(assert (= var4928113 temp410_14))
(model-add temp410_2 () (_ BitVec 64) #x00000000000003cb)
(model-add temp410_1 () (_ BitVec 64) #x00000000000003cb)
(model-add temp410_3 () (_ BitVec 64) #x0000000000000000)
(model-add var288560 () (_ BitVec 64) #x0000000000000000)
(model-add temp410_5 () (_ BitVec 64) #x0000000000000002)
(model-add temp410_4 () (_ BitVec 64) #x0000000000000002)
(model-add temp410_6 () (_ BitVec 64) #x0000000000000000)
(model-add var852463 () (_ BitVec 64) #x0000000000000000)
(model-add temp410_7 () (_ BitVec 64) #x0000000000000000)
(model-add var1516363 () (_ BitVec 64) #x0000000000000000)
(model-add var1585777 () (_ BitVec 64) #x0000000000000000)
(model-add temp410_8 () (_ BitVec 64) #x0000000000000001)
(model-add var1979015 () (_ BitVec 64) #x0000000000000001)
(model-add var1979024 () (_ BitVec 64) #x0000000000000001)
(model-add var2101624 () (_ BitVec 64) #x0000000000000001)
(model-add var2699889 () (_ BitVec 64) #x0000000000000000)
(model-add var2962033 () (_ BitVec 64) #x0000000000000000)
(model-add temp410_9 () (_ BitVec 64) #x0000000000000001)
(model-add var3093127 () (_ BitVec 64) #x0000000000000001)
(model-add var3093136 () (_ BitVec 64) #x0000000000000001)
(model-add var3215736 () (_ BitVec 64) #x0000000000000001)
(model-add var4469361 () (_ BitVec 64) #x0000000000000000)
(model-add temp410_10 () (_ BitVec 64) #x0000000000000001)
(model-add var4534897 () (_ BitVec 64) #x0000000000000001)
(model-add temp410_11 () (_ BitVec 64) #x0000000000000002)
(model-add var4600433 () (_ BitVec 64) #x0000000000000002)
(model-add temp410_12 () (_ BitVec 64) #x0000000000000002)
(model-add var4665969 () (_ BitVec 64) #x0000000000000002)
(model-add var4797041 () (_ BitVec 64) #x0000000000000000)
(model-add temp410_13 () (_ BitVec 64) #x0000000000000001)
(model-add var4862577 () (_ BitVec 64) #x0000000000000001)
(model-add temp410_14 () (_ BitVec 64) #x0000000000000002)
(model-add var4928113 () (_ BitVec 64) #x0000000000000002)




